NAME: tsp_243
COMMENT: Random TSP instance
TYPE: TSP
DIMENSION: 50
EDGE_WEIGHT_TYPE: EUC_2D
NODE_COORD_SECTION
1 877 36
2 561 975
3 320 621
4 345 306
5 717 492
6 320 903
7 771 632
8 393 279
9 872 204
10 946 707
11 551 138
12 855 44
13 923 1
14 66 882
15 445 887
16 235 970
17 507 162
18 551 136
19 186 980
20 398 460
21 870 735
22 387 63
23 644 954
24 805 345
25 476 682
26 603 946
27 172 213
28 500 764
29 108 338
30 276 34
31 919 574
32 986 33
33 752 553
34 101 689
35 699 705
36 797 542
37 815 901
38 702 301
39 97 77
40 519 503
41 603 503
42 719 849
43 880 528
44 44 357
45 464 477
46 449 349
47 620 934
48 70 338
49 576 742
50 896 359
